data/mip_solutions/furman_sahinidis/transportation/10sp-la1_gurobi.sol
Elapsed time: 0.0979270935059
Nodes explored: 0
Upper bound: 12.0
Lower bound: 12.0
y[0,0]=1
y[0,4]=1
y[0,5]=1
y[1,4]=1
y[2,1]=1
y[2,3]=1
y[2,4]=1
y[3,1]=1
y[3,2]=1
y[3,4]=1
y[3,5]=1
y[4,4]=1
q[0,1,0,1]=9.0
q[0,1,4,1]=1.7
q[0,2,0,2]=6.0
q[0,3,0,3]=1.0
q[0,4,0,4]=4.0
q[0,5,5,8]=1.5
q[0,6,5,8]=2.5
q[0,7,5,8]=2.5
q[0,8,5,8]=0.5
q[1,2,4,2]=9.6
q[2,2,1,2]=0.98
q[2,2,3,2]=1.2
q[2,2,4,2]=1.42
q[2,3,3,3]=0.6
q[2,4,3,4]=2.4
q[2,5,3,5]=0.9
q[2,6,3,6]=1.5
q[2,7,1,7]=0.6
q[3,3,1,3]=0.7
q[3,3,1,4]=0.25
q[3,3,1,5]=1.05
q[3,3,4,3]=2.0
q[3,4,1,4]=2.55
q[3,4,2,4]=13.3
q[3,4,2,5]=0.15
q[3,5,1,7]=0.9
q[3,5,2,5]=5.1
q[3,6,1,6]=1.75
q[3,6,5,8]=8.25
q[3,7,1,7]=0.25
q[3,7,5,8]=3.75
q[4,0,4,1]=16.3
q[4,0,4,2]=0.98
